164
179
153
123
109
114
142
185
111
103
155
135
132
129
151
148
132
146
156
140
185
162
109
138
181
172
118
128
133
176
130
151
104
148
154
195
178
139
119
192
135
147
198
196
107
141
136
100
146
195
178
129
123
175
130
128
148
110
134
170
167
151
173
180
175
193
152
182
153
149
142
121
110
156
124
160
109
100
186
119
132
152
132
124
189
153
179
151
131
184
168
103
172
128
140
200
116
167
105
159
